webassembly/ejemplos_dzn/folder4_json_55.dzn
TERM = { '.', 'local_1', 's(0)', 'local_0'};
null = '.';
s = 4;
n = 6;
ndeps = 0;
max_registers_sz = 4;
NR = 1;
registers = [|'local_1', 'local_0'|];
dependencies = [| |];
GET_ENUM = { GET1, GET2, GET3, GET4, GET5};
SET_ENUM = { SET1, SET2, SET3, SET4, SET5};
TEE_ENUM = { TEE1, TEE2, TEE3, TEE4, TEE5};
N = 3;
OP = { 'i32.const_0', 'call[function_index(0)]_1', 'local.get_0' };
in_ops = [0, 1, 0 ];
out_ops = [1, 0, 1 ];
in1 = ['.', 's(0)', '.' ];
in2 = ['.', '.', '.' ];
in3 = ['.', '.', '.' ];
out1 = ['s(0)', '.', 'local_0' ];
out2 = ['.', '.', '.' ];
out3 = ['.', '.', '.' ];
comm = [false, false, false ];
gas = [1, 1, 1 ];
sz = [1, 1, 1 ];
stor = [false, true, false ];
lb = [ 1, 1, 1 ];
ub = [ 4, 4, 4 ];
startstack = [ null, null, null, null, null, null ];
endstack = [ 'local_0', null, null, null, null, null ];
